# Mixed-mode frozen structure generated from parent + alpha*X2 + beta*X3
# alpha_X2 = -1.0000000000
# beta_X3  = -1.0000000000

%BLOCK LATTICE_CART
ang    # angstrom units
   5.207830000000000   0.000000000000000   0.000000000000000
   0.000000000000000   5.207830000000000   0.000000000000000
   0.000000000000000   0.000000000000000  19.137060000000002
%ENDBLOCK LATTICE_CART

%BLOCK POSITIONS_FRAC
Mn   0.740960000000000   0.250980000000000   0.400750000000000   SPIN=3.000
Mn   0.740960000000000   0.250980000000000   0.599250000000000   SPIN=-3.000
Mn   0.740960000000000   0.750980000000000   0.900750000000000   SPIN=3.000
Mn   0.240960000000000   0.749020000000000   0.400750000000000   SPIN=-3.000
Mn   0.740960000000000   0.750980000000000   0.099250000000000   SPIN=-3.000
Mn   0.240960000000000   0.249020000000000   0.099250000000000   SPIN=3.000
Mn   0.240960000000000   0.249020000000000   0.900750000000000   SPIN=-3.000
Mn   0.240960000000000   0.749020000000000   0.599250000000000   SPIN=3.000
Ca   0.740960000000000   0.252900000000000   0.000000000000000
Ca   0.740960000000000   0.752900000000000   0.500000000000000
Ca   0.240960000000000   0.747100000000000   0.000000000000000
Ca   0.240960000000000   0.247100000000000   0.500000000000000
Ca   0.740960000000000   0.755520000000000   0.315540000000000
Ca   0.740960000000000   0.755520000000000   0.684460000000000
Ca   0.740960000000000   0.255520000000000   0.815540000000000
Ca   0.240960000000000   0.244480000000000   0.315540000000000
Ca   0.740960000000000   0.255520000000000   0.184460000000000
Ca   0.240960000000000   0.744480000000000   0.184460000000000
Ca   0.240960000000000   0.744480000000000   0.815540000000000
Ca   0.240960000000000   0.244480000000000   0.684460000000000
O    0.740960000000000   0.750000000000000   0.000000000000000
O    0.740960000000000   0.250000000000000   0.500000000000000
O    0.240960000000000   0.250000000000000   0.000000000000000
O    0.240960000000000   0.750000000000000   0.500000000000000
O    0.740960000000000   0.708980000000000   0.197620000000000
O    0.740960000000000   0.708980000000000   0.802380000000000
O    0.740960000000000   0.208980000000000   0.697620000000000
O    0.240960000000000   0.291020000000000   0.197620000000000
O    0.740960000000000   0.208980000000000   0.302380000000000
O    0.240960000000000   0.791020000000000   0.302380000000000
O    0.240960000000000   0.791020000000000   0.697620000000000
O    0.240960000000000   0.291020000000000   0.802380000000000
O    0.028630000000000   0.537870000000000   0.087320000000000
O    0.028630000000000   0.537870000000000   0.912680000000000
O    0.028630000000000   0.037870000000000   0.587320000000000
O    0.528630000000000   0.462130000000000   0.087320000000000
O    0.028630000000000   0.037870000000000   0.412680000000000
O    0.528630000000000   0.962130000000000   0.412680000000000
O    0.528630000000000   0.962130000000000   0.587320000000000
O    0.528630000000000   0.462130000000000   0.912680000000000
O    0.453290000000000   0.962130000000000   0.108550000000000
O    0.453290000000000   0.962130000000000   0.891450000000000
O    0.453290000000000   0.462130000000000   0.608550000000000
O    0.953290000000000   0.037870000000000   0.108550000000000
O    0.453290000000000   0.462130000000000   0.391450000000000
O    0.953290000000000   0.537870000000000   0.391450000000000
O    0.953290000000000   0.537870000000000   0.608550000000000
O    0.953290000000000   0.037870000000000   0.891450000000000
%ENDBLOCK POSITIONS_FRAC

FIX_COM : true

%BLOCK species_pot
O O_C19_PBESOL_OTF.usp
Ca Ca_C19_PBESOL_OTF.usp
Mn Mn_C19_PBESOL_OTF.usp
%ENDBLOCK species_pot

SYMMETRY_TOL :     0.001000

kpoint_mp_grid :    5 5 2

#KPOINT_MP_SPACING 0.05

symmetry_generate

%block spectral_kpoint_path
0.5000 0.0000 0.5000
0.0000 0.0000 0.0000
0.5000 0.0000 -0.500
%endblock spectral_kpoint_path


SPECTRAL_KPOINT_PATH_SPACING : 0.02 1/ang


